benchmarks_vrp/CMT4/fixed_c/CMT4_2.vrp
NAME: CMT4_2
TYPE: CVRP
COMMENT: 1028.42 - Cluster Nr.2
DIMENSION: 16
CAPACITY: 200
EDGE_WEIGHT_TYPE: EUC_2D
NODE_COORD_TYPE: TWOD_COORDS
NODE_COORD_SECTION: 
8 6 38
3 15 47
5 10 43
9 7 38
10 11 31
13 35 35
14 17 34
4 12 42
16 15 30
12 21 47
2 2 48
1 20 40
15 17 33
7 5 30
6 20 50
11 14 37
DEPOT_SECTION: 
13
-1
DEMAND_SECTION: 
2 1
12 15
10 7
14 3
9 28
16 26
1 12
13 0
7 2
4 21
15 41
11 11
3 16
6 5
5 9
8 16
EOF
