benchmarks_vrp/CMT4/fixed_c/CMT4_2.tour
NAME: CMT4_2 solution
TYPE: TOUR
TOUR_SECTION:
13 1 11 14 -1
13 12 6 3 4 5 2 9 8 7 10 16 15 -1
-1
EOF